50 1037
509 850 829 1101 780 806 1140 498 914 334 126 316 588 860 716 822 872 827 597 262 674 1057 1124 1138 460 1106 1087 965 647 519 557 479 858 818 703 488 758 1137 546 1075 1117 539 862 241 965 634 805 412 877 996 
152 460 434 874 379 407 963 145 544 64 9 57 205 472 313 426 488 432 212 39 275 781 926 958 123 884 842 621 252 158 183 134 470 421 301 139 355 957 176 817 910 171 475 33 620 241 406 98 494 671 
